
Gurobi 12.0.1 (win64, Python) logging started Thu Jan 30 12:21:25 2025

Set parameter Username
Set parameter LicenseID to value 2616547
Set parameter LogFile to value "gurobi.log"
Academic license - for non-commercial use only - expires 2026-01-30
